(set-logic QF_BV)

(declare-const __ESBMC_ptr_obj_start_0 (_ BitVec 64))

(declare-const __ESBMC_ptr_obj_end_0 (_ BitVec 64))

(declare-const __ESBMC_ptr_obj_start_1 (_ BitVec 64))

(declare-const __ESBMC_ptr_obj_end_1 (_ BitVec 64))

(declare-const |smt_conv::__ESBMC_ptr_addr_range_0..start0| (_ BitVec 64))

(declare-const |smt_conv::__ESBMC_ptr_addr_range_0..end0| (_ BitVec 64))

(declare-const |smt_conv::__ESBMC_ptr_addr_range_1..start0| (_ BitVec 64))

(declare-const |smt_conv::__ESBMC_ptr_addr_range_1..end0| (_ BitVec 64))

(declare-const |smt_conv::smt_conv::collate_array_vals::3..start0| (_ BitVec 64))

(declare-const |smt_conv::smt_conv::collate_array_vals::3..end0| (_ BitVec 64))

(declare-const |smt_conv::smt_conv::collate_array_vals::4..start0| (_ BitVec 64))

(declare-const |smt_conv::smt_conv::collate_array_vals::4..end0| (_ BitVec 64))

(declare-const |smt_conv::smt_conv::collate_array_vals::7..start0| (_ BitVec 64))

(declare-const |smt_conv::smt_conv::collate_array_vals::7..end0| (_ BitVec 64))

(declare-const |c:sumt3.c@518@F@main@n?1!0&0#1| (_ BitVec 32))

(declare-const |nondet$symex::nondet66| (_ BitVec 32))

(declare-const |goto_symex::guard?0!0&0#1| (_ BitVec 1))

(declare-const |goto_symex::guard?0!0&0#2| (_ BitVec 1))

(declare-const |goto_symex::guard?0!0&0#3| (_ BitVec 1))

(declare-const |goto_symex::guard?0!0&0#4| (_ BitVec 1))

(declare-const |goto_symex::guard?0!0&0#5| (_ BitVec 1))

(declare-const |goto_symex::guard?0!0&0#6| (_ BitVec 1))

(declare-const |goto_symex::guard?0!0&0#7| (_ BitVec 1))

(declare-const |goto_symex::guard?0!0&0#8| (_ BitVec 1))

(declare-const |goto_symex::guard?0!0&0#9| (_ BitVec 1))

(declare-const |goto_symex::guard?0!0&0#10| (_ BitVec 1))

(declare-const |goto_symex::guard?0!0&0#11| (_ BitVec 1))

(declare-const |goto_symex::guard?0!0&0#12| (_ BitVec 1))

(declare-const |execution_statet::guard_exec?0!0| (_ BitVec 1))

(declare-const |c:sumt3.c@518@F@main@l?1!0&0#15| (_ BitVec 32))

(declare-const |c:sumt3.c@518@F@main@i?1!0&0#6| (_ BitVec 32))

(declare-const |c:sumt3.c@518@F@main@l?1!0&0#16| (_ BitVec 32))

(declare-const |c:sumt3.c@518@F@main@i?1!0&0#7| (_ BitVec 32))

(declare-const |c:sumt3.c@518@F@main@j?1!0&0#8| (_ BitVec 32))

(declare-const |c:sumt3.c@518@F@main@l?1!0&0#17| (_ BitVec 32))

(declare-const |c:sumt3.c@518@F@main@k?1!0&0#5| (_ BitVec 32))

(declare-const |c:sumt3.c@518@F@main@i?1!0&0#8| (_ BitVec 32))

(declare-const |c:sumt3.c@518@F@main@j?1!0&0#9| (_ BitVec 32))

(declare-const |c:sumt3.c@518@F@main@l?1!0&0#18| (_ BitVec 32))

(declare-const |c:sumt3.c@518@F@main@k?1!0&0#6| (_ BitVec 32))

(declare-const |c:sumt3.c@518@F@main@i?1!0&0#9| (_ BitVec 32))

(declare-const |c:sumt3.c@518@F@main@j?1!0&0#10| (_ BitVec 32))

(declare-const |c:sumt3.c@518@F@main@l?1!0&0#19| (_ BitVec 32))

(declare-const |c:sumt3.c@518@F@main@k?1!0&0#7| (_ BitVec 32))

(declare-const |c:sumt3.c@518@F@main@i?1!0&0#10| (_ BitVec 32))

(declare-const |c:sumt3.c@518@F@main@j?1!0&0#11| (_ BitVec 32))

(declare-const |c:sumt3.c@518@F@main@l?1!0&0#20| (_ BitVec 32))

(declare-const |c:sumt3.c@518@F@main@k?1!0&0#8| (_ BitVec 32))

(declare-const |c:sumt3.c@518@F@main@i?1!0&0#11| (_ BitVec 32))

(declare-const |c:sumt3.c@518@F@main@j?1!0&0#12| (_ BitVec 32))

(declare-const |c:sumt3.c@518@F@main@l?1!0&0#21| (_ BitVec 32))

(declare-const |c:sumt3.c@518@F@main@k?1!0&0#9| (_ BitVec 32))

(declare-const |c:sumt3.c@518@F@main@i?1!0&0#12| (_ BitVec 32))

(declare-const |c:sumt3.c@518@F@main@j?1!0&0#13| (_ BitVec 32))

(declare-const |c:sumt3.c@518@F@main@l?1!0&0#22| (_ BitVec 32))

(declare-const |c:sumt3.c@518@F@main@k?1!0&0#10| (_ BitVec 32))

(declare-const |c:sumt3.c@518@F@main@i?1!0&0#13| (_ BitVec 32))

(declare-const |c:sumt3.c@518@F@main@j?1!0&0#14| (_ BitVec 32))

(declare-const |c:sumt3.c@518@F@main@l?1!0&0#23| (_ BitVec 32))

(declare-const |c:sumt3.c@518@F@main@k?1!0&0#11| (_ BitVec 32))

(declare-const |c:sumt3.c@518@F@main@i?1!0&0#14| (_ BitVec 32))

(declare-const |c:sumt3.c@518@F@main@j?1!0&0#15| (_ BitVec 32))

(declare-const |c:sumt3.c@518@F@main@l?1!0&0#24| (_ BitVec 32))

(declare-const |c:sumt3.c@518@F@main@k?1!0&0#12| (_ BitVec 32))

(declare-const |c:sumt3.c@518@F@main@i?1!0&0#15| (_ BitVec 32))

(declare-const |c:sumt3.c@518@F@main@j?1!0&0#16| (_ BitVec 32))

(declare-const |c:sumt3.c@362@F@__VERIFIER_assert@cond?1!0&0#1| (_ BitVec 32))

(declare-const |goto_symex::guard?0!0&0#13| (_ BitVec 1))

(assert 

 (= __ESBMC_ptr_obj_start_0 #b0000000000000000000000000000000000000000000000000000000000000000))

(assert 

 (= #b0000000000000000000000000000000000000000000000000000000000000000 __ESBMC_ptr_obj_end_0))

(assert 

 (= __ESBMC_ptr_obj_start_1 #b0000000000000000000000000000000000000000000000000000000000000001))

(assert 

 (= #b1111111111111111111111111111111111111111111111111111111111111111 __ESBMC_ptr_obj_end_1))

(assert 

 (= __ESBMC_ptr_obj_end_0 |smt_conv::__ESBMC_ptr_addr_range_0..end0|))

(assert 

 (= __ESBMC_ptr_obj_start_0 |smt_conv::__ESBMC_ptr_addr_range_0..start0|))

(assert 

 (= __ESBMC_ptr_obj_end_1 |smt_conv::__ESBMC_ptr_addr_range_1..end0|))

(assert 

 (= __ESBMC_ptr_obj_start_1 |smt_conv::__ESBMC_ptr_addr_range_1..start0|))

(assert 

 (= |smt_conv::smt_conv::collate_array_vals::3..end0| |smt_conv::smt_conv::collate_array_vals::4..end0|))

(assert 

 (= |smt_conv::smt_conv::collate_array_vals::3..start0| |smt_conv::smt_conv::collate_array_vals::4..start0|))

(assert 

 (= __ESBMC_ptr_obj_end_0 |smt_conv::smt_conv::collate_array_vals::7..end0|))

(assert 

 (= __ESBMC_ptr_obj_start_0 |smt_conv::smt_conv::collate_array_vals::7..start0|))

(assert 

 (= |c:sumt3.c@518@F@main@n?1!0&0#1| |nondet$symex::nondet66|))

(assert 

 (= |goto_symex::guard?0!0&0#1| 

  (ite 

   (bvult #b00000001001100010010110100000001 |c:sumt3.c@518@F@main@n?1!0&0#1|) #b1 #b0)))

(assert 

 (= |goto_symex::guard?0!0&0#2| 

  (bvnot 

   (ite 

    (= #b00000000000000000000000000000000 |c:sumt3.c@518@F@main@n?1!0&0#1|) #b1 #b0))))

(assert 

 (= |goto_symex::guard?0!0&0#3| 

  (ite 

   (bvult #b00000000000000000000000000000001 |c:sumt3.c@518@F@main@n?1!0&0#1|) #b1 #b0)))

(assert 

 (= |goto_symex::guard?0!0&0#4| 

  (ite 

   (bvult #b00000000000000000000000000000010 |c:sumt3.c@518@F@main@n?1!0&0#1|) #b1 #b0)))

(assert 

 (= |goto_symex::guard?0!0&0#5| 

  (ite 

   (bvult #b00000000000000000000000000000011 |c:sumt3.c@518@F@main@n?1!0&0#1|) #b1 #b0)))

(assert 

 (= |goto_symex::guard?0!0&0#6| 

  (ite 

   (bvult #b00000000000000000000000000000100 |c:sumt3.c@518@F@main@n?1!0&0#1|) #b1 #b0)))

(assert 

 (= |goto_symex::guard?0!0&0#7| 

  (ite 

   (bvult #b00000000000000000000000000000101 |c:sumt3.c@518@F@main@n?1!0&0#1|) #b1 #b0)))

(assert 

 (= |goto_symex::guard?0!0&0#8| 

  (ite 

   (bvult #b00000000000000000000000000000110 |c:sumt3.c@518@F@main@n?1!0&0#1|) #b1 #b0)))

(assert 

 (= |goto_symex::guard?0!0&0#9| 

  (ite 

   (bvult #b00000000000000000000000000000111 |c:sumt3.c@518@F@main@n?1!0&0#1|) #b1 #b0)))

(assert 

 (= |goto_symex::guard?0!0&0#10| 

  (ite 

   (bvult #b00000000000000000000000000001000 |c:sumt3.c@518@F@main@n?1!0&0#1|) #b1 #b0)))

(assert 

 (= |goto_symex::guard?0!0&0#11| 

  (ite 

   (bvult #b00000000000000000000000000001001 |c:sumt3.c@518@F@main@n?1!0&0#1|) #b1 #b0)))

(assert 

 (= |goto_symex::guard?0!0&0#12| 

  (ite 

   (bvult #b00000000000000000000000000001010 |c:sumt3.c@518@F@main@n?1!0&0#1|) #b1 #b0)))

(assert 

 (= |c:sumt3.c@518@F@main@l?1!0&0#15| 

  (ite 

   (= #b1 |goto_symex::guard?0!0&0#11|) #b00000000000000000000000000001010 #b00000000000000000000000000001001)))

(assert 

 (= |c:sumt3.c@518@F@main@i?1!0&0#6| 

  (ite 

   (= #b1 |goto_symex::guard?0!0&0#11|) #b00000000000000000000000000000100 #b00000000000000000000000000000011)))

(assert 

 (= |c:sumt3.c@518@F@main@l?1!0&0#16| 

  (ite 

   (= #b1 |goto_symex::guard?0!0&0#10|) |c:sumt3.c@518@F@main@l?1!0&0#15| #b00000000000000000000000000001000)))

(assert 

 (= |c:sumt3.c@518@F@main@i?1!0&0#7| 

  (ite 

   (= #b1 |goto_symex::guard?0!0&0#10|) |c:sumt3.c@518@F@main@i?1!0&0#6| #b00000000000000000000000000000011)))

(assert 

 (= |c:sumt3.c@518@F@main@j?1!0&0#8| 

  (ite 

   (= #b1 |goto_symex::guard?0!0&0#10|) #b00000000000000000000000000000011 #b00000000000000000000000000000010)))

(assert 

 (= |c:sumt3.c@518@F@main@l?1!0&0#17| 

  (ite 

   (= #b1 |goto_symex::guard?0!0&0#9|) |c:sumt3.c@518@F@main@l?1!0&0#16| #b00000000000000000000000000000111)))

(assert 

 (= |c:sumt3.c@518@F@main@k?1!0&0#5| 

  (ite 

   (= #b1 |goto_symex::guard?0!0&0#9|) #b00000000000000000000000000000011 #b00000000000000000000000000000010)))

(assert 

 (= |c:sumt3.c@518@F@main@i?1!0&0#8| 

  (ite 

   (= #b1 |goto_symex::guard?0!0&0#9|) |c:sumt3.c@518@F@main@i?1!0&0#7| #b00000000000000000000000000000011)))

(assert 

 (= |c:sumt3.c@518@F@main@j?1!0&0#9| 

  (ite 

   (= #b1 |goto_symex::guard?0!0&0#9|) |c:sumt3.c@518@F@main@j?1!0&0#8| #b00000000000000000000000000000010)))

(assert 

 (= |c:sumt3.c@518@F@main@l?1!0&0#18| 

  (ite 

   (= #b1 |goto_symex::guard?0!0&0#8|) |c:sumt3.c@518@F@main@l?1!0&0#17| #b00000000000000000000000000000110)))

(assert 

 (= |c:sumt3.c@518@F@main@k?1!0&0#6| 

  (ite 

   (= #b1 |goto_symex::guard?0!0&0#8|) |c:sumt3.c@518@F@main@k?1!0&0#5| #b00000000000000000000000000000010)))

(assert 

 (= |c:sumt3.c@518@F@main@i?1!0&0#9| 

  (ite 

   (= #b1 |goto_symex::guard?0!0&0#8|) |c:sumt3.c@518@F@main@i?1!0&0#8| #b00000000000000000000000000000010)))

(assert 

 (= |c:sumt3.c@518@F@main@j?1!0&0#10| 

  (ite 

   (= #b1 |goto_symex::guard?0!0&0#8|) |c:sumt3.c@518@F@main@j?1!0&0#9| #b00000000000000000000000000000010)))

(assert 

 (= |c:sumt3.c@518@F@main@l?1!0&0#19| 

  (ite 

   (= #b1 |goto_symex::guard?0!0&0#7|) |c:sumt3.c@518@F@main@l?1!0&0#18| #b00000000000000000000000000000101)))

(assert 

 (= |c:sumt3.c@518@F@main@k?1!0&0#7| 

  (ite 

   (= #b1 |goto_symex::guard?0!0&0#7|) |c:sumt3.c@518@F@main@k?1!0&0#6| #b00000000000000000000000000000001)))

(assert 

 (= |c:sumt3.c@518@F@main@i?1!0&0#10| 

  (ite 

   (= #b1 |goto_symex::guard?0!0&0#7|) |c:sumt3.c@518@F@main@i?1!0&0#9| #b00000000000000000000000000000010)))

(assert 

 (= |c:sumt3.c@518@F@main@j?1!0&0#11| 

  (ite 

   (= #b1 |goto_symex::guard?0!0&0#7|) |c:sumt3.c@518@F@main@j?1!0&0#10| #b00000000000000000000000000000010)))

(assert 

 (= |c:sumt3.c@518@F@main@l?1!0&0#20| 

  (ite 

   (= #b1 |goto_symex::guard?0!0&0#6|) |c:sumt3.c@518@F@main@l?1!0&0#19| #b00000000000000000000000000000100)))

(assert 

 (= |c:sumt3.c@518@F@main@k?1!0&0#8| 

  (ite 

   (= #b1 |goto_symex::guard?0!0&0#6|) |c:sumt3.c@518@F@main@k?1!0&0#7| #b00000000000000000000000000000001)))

(assert 

 (= |c:sumt3.c@518@F@main@i?1!0&0#11| 

  (ite 

   (= #b1 |goto_symex::guard?0!0&0#6|) |c:sumt3.c@518@F@main@i?1!0&0#10| #b00000000000000000000000000000010)))

(assert 

 (= |c:sumt3.c@518@F@main@j?1!0&0#12| 

  (ite 

   (= #b1 |goto_symex::guard?0!0&0#6|) |c:sumt3.c@518@F@main@j?1!0&0#11| #b00000000000000000000000000000001)))

(assert 

 (= |c:sumt3.c@518@F@main@l?1!0&0#21| 

  (ite 

   (= #b1 |goto_symex::guard?0!0&0#5|) |c:sumt3.c@518@F@main@l?1!0&0#20| #b00000000000000000000000000000011)))

(assert 

 (= |c:sumt3.c@518@F@main@k?1!0&0#9| 

  (ite 

   (= #b1 |goto_symex::guard?0!0&0#5|) |c:sumt3.c@518@F@main@k?1!0&0#8| #b00000000000000000000000000000001)))

(assert 

 (= |c:sumt3.c@518@F@main@i?1!0&0#12| 

  (ite 

   (= #b1 |goto_symex::guard?0!0&0#5|) |c:sumt3.c@518@F@main@i?1!0&0#11| #b00000000000000000000000000000001)))

(assert 

 (= |c:sumt3.c@518@F@main@j?1!0&0#13| 

  (ite 

   (= #b1 |goto_symex::guard?0!0&0#5|) |c:sumt3.c@518@F@main@j?1!0&0#12| #b00000000000000000000000000000001)))

(assert 

 (= |c:sumt3.c@518@F@main@l?1!0&0#22| 

  (ite 

   (= #b1 |goto_symex::guard?0!0&0#4|) |c:sumt3.c@518@F@main@l?1!0&0#21| #b00000000000000000000000000000010)))

(assert 

 (= |c:sumt3.c@518@F@main@k?1!0&0#10| 

  (ite 

   (= #b1 |goto_symex::guard?0!0&0#4|) |c:sumt3.c@518@F@main@k?1!0&0#9| #b00000000000000000000000000000001)))

(assert 

 (= |c:sumt3.c@518@F@main@i?1!0&0#13| 

  (ite 

   (= #b1 |goto_symex::guard?0!0&0#4|) |c:sumt3.c@518@F@main@i?1!0&0#12| #b00000000000000000000000000000001)))

(assert 

 (= |c:sumt3.c@518@F@main@j?1!0&0#14| 

  (ite 

   (= #b1 |goto_symex::guard?0!0&0#4|) |c:sumt3.c@518@F@main@j?1!0&0#13| #b00000000000000000000000000000000)))

(assert 

 (= |c:sumt3.c@518@F@main@l?1!0&0#23| 

  (ite 

   (= #b1 |goto_symex::guard?0!0&0#3|) |c:sumt3.c@518@F@main@l?1!0&0#22| #b00000000000000000000000000000001)))

(assert 

 (= |c:sumt3.c@518@F@main@k?1!0&0#11| 

  (ite 

   (= #b1 |goto_symex::guard?0!0&0#3|) |c:sumt3.c@518@F@main@k?1!0&0#10| #b00000000000000000000000000000000)))

(assert 

 (= |c:sumt3.c@518@F@main@i?1!0&0#14| 

  (ite 

   (= #b1 |goto_symex::guard?0!0&0#3|) |c:sumt3.c@518@F@main@i?1!0&0#13| #b00000000000000000000000000000001)))

(assert 

 (= |c:sumt3.c@518@F@main@j?1!0&0#15| 

  (ite 

   (= #b1 |goto_symex::guard?0!0&0#3|) |c:sumt3.c@518@F@main@j?1!0&0#14| #b00000000000000000000000000000000)))

(assert 

 (= |c:sumt3.c@518@F@main@l?1!0&0#24| 

  (ite 

   (= #b1 |goto_symex::guard?0!0&0#2|) |c:sumt3.c@518@F@main@l?1!0&0#23| #b00000000000000000000000000000000)))

(assert 

 (= |c:sumt3.c@518@F@main@k?1!0&0#12| 

  (ite 

   (= #b1 |goto_symex::guard?0!0&0#2|) |c:sumt3.c@518@F@main@k?1!0&0#11| #b00000000000000000000000000000000)))

(assert 

 (= |c:sumt3.c@518@F@main@i?1!0&0#15| 

  (ite 

   (= #b1 |goto_symex::guard?0!0&0#2|) |c:sumt3.c@518@F@main@i?1!0&0#14| #b00000000000000000000000000000000)))

(assert 

 (= |c:sumt3.c@518@F@main@j?1!0&0#16| 

  (ite 

   (= #b1 |goto_symex::guard?0!0&0#2|) |c:sumt3.c@518@F@main@j?1!0&0#15| #b00000000000000000000000000000000)))

(assert 

 (= |c:sumt3.c@362@F@__VERIFIER_assert@cond?1!0&0#1| 

  (ite 

   (= |c:sumt3.c@518@F@main@l?1!0&0#24| 

    (bvadd |c:sumt3.c@518@F@main@k?1!0&0#12| 

     (bvadd |c:sumt3.c@518@F@main@i?1!0&0#15| |c:sumt3.c@518@F@main@j?1!0&0#16|))) #b00000000000000000000000000000001 #b00000000000000000000000000000000)))

(assert 

 (= |goto_symex::guard?0!0&0#13| 

  (ite 

   (= #b00000000000000000000000000000000 |c:sumt3.c@362@F@__VERIFIER_assert@cond?1!0&0#1|) #b1 #b0)))

(assert (= |execution_statet::guard_exec?0!0| #b1))

(assert (= |goto_symex::guard?0!0&0#12| #b1))

(assert (= |goto_symex::guard?0!0&0#11| #b1))

(assert (= |goto_symex::guard?0!0&0#10| #b1))

(assert (= |goto_symex::guard?0!0&0#9| #b1))

(assert (= |goto_symex::guard?0!0&0#8| #b1))

(assert (= |goto_symex::guard?0!0&0#7| #b1))

(assert (= |goto_symex::guard?0!0&0#6| #b1))

(assert (= |goto_symex::guard?0!0&0#5| #b1))

(assert (= |goto_symex::guard?0!0&0#4| #b1))

(assert (= |goto_symex::guard?0!0&0#3| #b1))

(assert (= |goto_symex::guard?0!0&0#2| #b1))

(assert (= 

 (bvnot |goto_symex::guard?0!0&0#1|) #b1))

(check-sat)

(exit)
